VARIABLES="x" "y" "U"  "V" "sigma_xx"  "sigma_yy""sigma_xy""sigma_zz" 
ZONE NODES=26,ELEMENTS=2.3000000e+01,DATAPACKING=POINT,ZONETYPE=FEQUADRILATERAL
   0.0000000e+00   0.0000000e+00   0.0000000e+00   0.0000000e+00  -5.8224545e+01  -1.7467364e+01  -2.6618103e+00   0.0000000e+00
   0.0000000e+00   2.5000000e+02   0.0000000e+00   0.0000000e+00  -1.2508819e+00  -3.7526457e-01  -1.5366042e+00   0.0000000e+00
   0.0000000e+00   5.0000000e+02   0.0000000e+00   0.0000000e+00   5.4907608e+01   8.0226808e+00   1.2771162e-02   0.0000000e+00
   6.2500000e+02   0.0000000e+00  -2.1667939e-01  -2.9244547e-01  -5.3656726e+01  -8.7831782e+00  -1.4761669e+00   0.0000000e+00
   6.2500000e+02   2.5000000e+02  -6.5425252e-04  -2.8025574e-01   2.4076075e+00   3.6420266e+00  -5.5511181e-01   0.0000000e+00
   6.2500000e+02   5.0000000e+02   2.1963119e-01  -2.9372524e-01   5.1343274e+01   7.1393095e-01  -3.4040098e-01   0.0000000e+00
   1.2500000e+03   0.0000000e+00  -4.2518143e-01  -1.1121093e+00  -4.6767333e+01   1.4602738e-01  -1.2930668e+00   0.0000000e+00
   1.2500000e+03   2.5000000e+02   2.7636205e-04  -1.0998707e+00  -1.3670758e+00   3.2567804e-01  -1.7136583e+00   0.0000000e+00
   1.2500000e+03   5.0000000e+02   4.2607579e-01  -1.1096566e+00   4.2058005e+01  -4.9275862e-02  -8.2320185e-01   0.0000000e+00
   1.8750000e+03   0.0000000e+00  -5.8803598e-01  -2.3902774e+00  -3.7306680e+01   5.7228772e-01  -4.3335613e-01   0.0000000e+00
   1.8750000e+03   2.5000000e+02   4.2723229e-04  -2.3816825e+00   1.2899495e+00  -1.1245100e+00  -7.1528523e-01   0.0000000e+00
   1.8750000e+03   5.0000000e+02   5.8894177e-01  -2.3918027e+00   3.7693320e+01   7.3639071e-01  -3.5464880e-01   0.0000000e+00
   2.5000000e+03   0.0000000e+00  -7.3750115e-01  -4.0629607e+00  -3.2476420e+01   4.7814988e-02  -1.0094320e+00   0.0000000e+00
   2.5000000e+03   2.5000000e+02   4.1157021e-04  -4.0539647e+00  -1.4780168e+00   4.5464093e-01  -1.8920273e+00   0.0000000e+00
   2.5000000e+03   5.0000000e+02   7.3834582e-01  -4.0599672e+00   2.7515059e+01   1.6598102e-01  -1.0060235e+00   0.0000000e+00
   3.1250000e+03   0.0000000e+00  -8.3806193e-01  -6.0434555e+00  -2.2321116e+01   7.3533868e-01  -3.5044643e-01   0.0000000e+00
   3.1250000e+03   2.5000000e+02   3.4173720e-04  -6.0385686e+00   1.2938801e+00  -1.0874934e+00  -6.6833790e-01   0.0000000e+00
   3.1250000e+03   5.0000000e+02   8.3873549e-01  -6.0450086e+00   2.2678884e+01   4.5964444e-01  -5.2619299e-01   0.0000000e+00
   3.7500000e+03   0.0000000e+00  -9.2534880e-01  -8.2625182e+00  -1.8321835e+01  -3.1064162e-01  -1.2052740e+00   0.0000000e+00
   3.7500000e+03   2.5000000e+02   8.0680316e-04  -8.2578254e+00  -8.4155601e-01   8.3201413e-02  -2.3047704e+00   0.0000000e+00
   3.7500000e+03   5.0000000e+02   9.2618740e-01  -8.2613993e+00   1.6146718e+01   2.1962674e-01  -2.2309083e+00   0.0000000e+00
   4.3750000e+03   0.0000000e+00  -9.6819681e-01  -1.0644302e+01  -7.3130189e+00   8.0611570e-01  -2.9615033e-02   0.0000000e+00
   4.3750000e+03   5.0000000e+02   9.6897068e-01  -1.0643831e+01   7.6869811e+00  -4.1086569e-01  -9.2527594e-02   0.0000000e+00
   5.0000000e+03   0.0000000e+00  -9.8830591e-01  -1.3103750e+01  -2.5402022e+00  -1.4756150e+00  -2.5912738e+00   0.0000000e+00
   5.0000000e+03   2.5000000e+02   6.3017631e-04  -1.3105570e+01  -2.1034814e-01  -1.5335833e+00  -2.7161984e+00   0.0000000e+00
   5.0000000e+03   5.0000000e+02   9.9127275e-01  -1.3108651e+01   2.4467342e+00  -1.4933831e+00  -2.5178052e+00   0.0000000e+00
       1       4       2       2
       7       5       2       4
       3       5       2       2

       3       5       6       6
       7       8       6       5
       9       8       6       6

       7      10       8       8
      13      11       8      10
       9      11       8       8

       9      11      12      12
      13      14      12      11
      15      14      12      12

      13      16      14      14
      19      17      14      16
      15      17      14      14

      15      17      18      18
      19      20      18      17
      21      20      18      18

      19      22      20      20
      24      25      22      22
      26      23      25      25
      21      20      23      23
      22      25      23      20

