VARIABLES="x" "y" "U"  "V" "sigma_xx"  "sigma_yy""sigma_xy""sigma_zz" 
ZONE NODES=23,ELEMENTS=2.0000000e+01,DATAPACKING=POINT,ZONETYPE=FEQUADRILATERAL
   0.0000000e+00   0.0000000e+00   0.0000000e+00   0.0000000e+00  -6.0038024e+01  -1.8011407e+01  -2.8078008e+00   0.0000000e+00
   0.0000000e+00   2.5000000e+02   0.0000000e+00   0.0000000e+00  -3.2950531e-02  -9.8851594e-03  -2.0723236e+00   0.0000000e+00
   0.0000000e+00   5.0000000e+02   0.0000000e+00   0.0000000e+00   5.9961976e+01   1.7988593e+01  -2.7454902e+00   0.0000000e+00
   6.2500000e+02   0.0000000e+00  -2.1907758e-01  -2.9328981e-01  -5.2486061e+01  -6.5447432e+00  -7.8977753e-01   0.0000000e+00
   6.2500000e+02   5.0000000e+02   2.1893015e-01  -2.9314018e-01   5.2513939e+01   6.6428856e+00  -8.4222088e-01   0.0000000e+00
   1.2500000e+03   0.0000000e+00  -4.2102199e-01  -1.1123235e+00  -4.5077423e+01   4.5636842e+00  -3.1286372e+00   0.0000000e+00
   1.2500000e+03   2.5000000e+02   3.1950281e-05  -1.0974390e+00  -8.8310206e-02  -2.5195318e-01  -2.9515067e+00   0.0000000e+00
   1.2500000e+03   5.0000000e+02   4.2100894e-01  -1.1130751e+00   4.4922577e+01  -5.0610580e+00  -3.0724730e+00   0.0000000e+00
   1.8750000e+03   0.0000000e+00  -5.9705295e-01  -2.4007414e+00  -3.7414741e+01   1.9924638e+00   6.2031802e-01   0.0000000e+00
   1.8750000e+03   5.0000000e+02   5.9697025e-01  -2.4001233e+00   3.7585259e+01  -1.5704228e+00   6.1659713e-01   0.0000000e+00
   2.5000000e+03   0.0000000e+00  -7.3779265e-01  -4.0833080e+00  -3.0253695e+01  -1.9552026e+00  -3.5013682e+00   0.0000000e+00
   2.5000000e+03   2.5000000e+02   1.1290629e-05  -4.0778986e+00  -2.1946469e-01  -6.9544884e-01  -3.6024187e+00   0.0000000e+00
   2.5000000e+03   5.0000000e+02   7.3814549e-01  -4.0854067e+00   2.9746305e+01   5.4376651e-01  -3.1793614e+00   0.0000000e+00
   3.1250000e+03   0.0000000e+00  -8.4646961e-01  -6.0816004e+00  -2.2400025e+01  -8.9256114e-02   4.0515803e-01   0.0000000e+00
   3.1250000e+03   5.0000000e+02   8.4599173e-01  -6.0802247e+00   2.2599975e+01   9.7466141e-01   8.6872101e-02   0.0000000e+00
   3.7500000e+03   0.0000000e+00  -9.2423639e-01  -8.3076455e+00  -1.5492591e+01  -1.4831486e+00  -3.2442208e+00   0.0000000e+00
   3.7500000e+03   2.5000000e+02   4.6042405e-04  -8.3062758e+00  -6.1723838e-01  -1.7061098e+00  -3.4080492e+00   0.0000000e+00
   3.7500000e+03   5.0000000e+02   9.2404196e-01  -8.3127153e+00   1.4507409e+01  -1.8542826e+00  -3.2932891e+00   0.0000000e+00
   4.3750000e+03   0.0000000e+00  -9.7113910e-01  -1.0697640e+01  -6.8580892e+00   1.7157570e+00   1.1765123e-01   0.0000000e+00
   4.3750000e+03   5.0000000e+02   9.7155420e-01  -1.0693718e+01   8.1419108e+00   1.0229735e+00   4.8500539e-01   0.0000000e+00
   5.0000000e+03   0.0000000e+00  -9.8567653e-01  -1.3154340e+01  -5.9461293e-01  -3.2982223e+00  -2.9138909e+00   0.0000000e+00
   5.0000000e+03   2.5000000e+02  -2.2698204e-04  -1.3159962e+01  -9.3921726e-01  -3.9088201e+00  -3.4419508e+00   0.0000000e+00
   5.0000000e+03   5.0000000e+02   9.8933378e-01  -1.3166430e+01  -5.9461293e-01  -4.3126553e+00  -3.6485992e+00   0.0000000e+00
       1       4       2       2
       6       7       4       4
       8       5       7       7
       3       2       5       5
       4       7       5       2

       6       9       7       7
      11      12       9       9
      13      10      12      12
       8       7      10      10
       9      12      10       7

      11      14      12      12
      16      17      14      14
      18      15      17      17
      13      12      15      15
      14      17      15      12

      16      19      17      17
      21      22      19      19
      23      20      22      22
      18      17      20      20
      19      22      20      17

